# Objective value = 13
WA1n 0
WA1p 0
WA2n 1
WA2p 0
WB1n 0
WB1p 0
WB2n 1
WB2p 0
WC1n 1
WC1p 0
WD1n 1
WD1p 0
WE1n 0
WE1p 1
WF1n 4
WF1p 0
WF2n 0
WF2p 0
WT1n 2
WT1p 0
100 102
a 1
b 1
c 1
d 1
e 1
f 1
g 1
h 0
i 0
j 1
